53
22 19 94
19 29 189
29 52 480
52 1 187
1 6 45
6 41 76
41 20 290
20 16 253
16 2 217
2 17 135
17 30 80
30 21 104
21 49 237
49 28 191
28 15 201
15 45 156
45 47 125
47 23 16
23 4 32
4 14 25
14 5 40
5 3 70
3 24 109
24 11 245
11 27 182
27 25 159
25 46 186
46 26 292
26 12 185
12 13 206
13 51 319
51 10 399
10 50 285
50 32 475
32 42 365
42 9 308
9 8 83
8 7 183
7 40 64
40 18 92
18 44 75
44 31 151
31 48 50
48 35 81
35 38 43
38 39 43
39 37 35
37 36 43
36 34 86
34 33 21
33 43 80
43 22 236

